\ This file has been generated by DOcplex
\ ENCODING=ISO-8859-1
\Problem name: random_problem.lp

Minimize
 obj: 6 x0 - 2 x7 - 10 x11 + [ - 2 x0*x3 - 14 x0*x7 + 12 x0*x11 + 18 x1^2
      + 8 x1*x4 + 2 x1*x11 - 10 x2*x4 - 14 x2*x5 + 18 x2*x6 + 10 x2*x8
      + 16 x3*x4 - 10 x3*x9 - 4 x4*x6 - 4 x4*x7 + 2 x6^2 + 16 x6*x11 + 12 x7^2
      + 10 x9*x10 - 8 x10*x11 ]/2
Subject To
 c0: - x0 + 2 x4 - x8 = -2
 c1: x4 + x5 + x7 = 0
 c2: 2 x0 - 2 x2 + x8 = 1

Bounds
 0 <= x0 <= 1
 0 <= x1 <= 1
 0 <= x2 <= 1
 0 <= x3 <= 1
 0 <= x4 <= 1
 0 <= x5 <= 1
 0 <= x6 <= 1
 0 <= x7 <= 1
 0 <= x8 <= 1
 0 <= x9 <= 1
 0 <= x10 <= 1
 0 <= x11 <= 1

Binaries
 x0 x1 x2 x3 x4 x5 x6 x7 x8 x9 x10 x11
End
